Solving original (integer) problem with strategy gdp.binary_multiplication...
--- Job model.gms Start 02/19/26 00:16:17 52.2.0 d8e408be LEX-LEG x86 64bit/Linux
--- Applying:
    /package/gams/52.2/gmsprmun.txt
--- GAMS Parameters defined
    Input /local/scratch/a/sgusev/repos/k_means/data/gams_gurobi_gdp.binary_multiplication/no_mode/2026-02-19_00-16-16/original/model.gms
    Output /local/scratch/a/sgusev/repos/k_means/data/gams_gurobi_gdp.binary_multiplication/no_mode/2026-02-19_00-16-16/original/output.lst
    ScrDir /local/scratch/a/sgusev/repos/k_means/data/gams_gurobi_gdp.binary_multiplication/no_mode/2026-02-19_00-16-16/original/225a/
    SysDir /package/gams/52.2/
    CurDir /local/scratch/a/sgusev/repos/k_means/data/gams_gurobi_gdp.binary_multiplication/no_mode/2026-02-19_00-16-16/original/
    LogOption 3
    AppendLog 1
Licensee: David Bernal / SECQUOIA Research Group         G251008+0003Ac-GEN
          Purdue University, Davidson School of Chemical EngineeringDCE4838
          225a/gamslice.dat
          5a82958a-fbca-4a23
          node:66820903 mem:995 cores:48 ipport:55573 v:2                  
          Evaluation license: Not for commercial or production use
          The time-limited license stops working on : Jun 30, 2027
System information: 48 physical cores and 995 Gb physical memory detected
GAMS 52.2.0   Copyright (C) 1987-2025 GAMS Development. All rights reserved
--- Starting compilation
--- model.gms(261) 2 Mb
--- $echo File /local/scratch/a/sgusev/repos/k_means/data/gams_gurobi_gdp.binary_multiplication/no_mode/2026-02-19_00-16-16/original/gurobi.opt
--- model.gms(458) 2 Mb
--- Starting execution: elapsed 0:00:00.006
--- model.gms(270) 3 Mb
--- Generating MINLP model GAMS_MODEL
--- model.gms(274) 5 Mb
---   59 rows  72 columns  326 non-zeroes
---   836 nl-code  264 nl-non-zeroes
---   44 discrete-columns
--- Range statistics (absolute non-zero finite values)
--- RHS       [min, max] : [ 1.000E+00, 1.000E+00] - Zero values observed as well
--- Bound     [min, max] : [ 1.000E+00, 8.800E+01] - Zero values observed as well
--- Matrix    [min, max] : [ 3.438E-01, 1.906E+00] - Zero values observed as well
--- model.gms(274) 3 Mb
--- Executing GUROBI (Solvelink=5): elapsed 0:00:00.009
Reading parameter(s) from "/local/scratch/a/sgusev/repos/k_means/data/gams_gurobi_gdp.binary_multiplication/no_mode/2026-02-19_00-16-16/original/gurobi.opt"
>>  NonConvex 2
>>  Threads 1
>>  MIPGap 1e-06
>>  MIPGapAbs 1e-10
>>  FeasibilityTol 1e-06
>>  OptimalityTol 1e-06
>>  IntFeasTol 1e-05
Finished reading from "/local/scratch/a/sgusev/repos/k_means/data/gams_gurobi_gdp.binary_multiplication/no_mode/2026-02-19_00-16-16/original/gurobi.opt"

... GRB_LICENSE_FILE = /local/scratch/a/sgusev/gurobi.lic

    Gurobi           52.2.0 d8e408be Dec 8, 2025           LEG x86 64bit/Linux    

... GAMS/Gurobi Link license.
... GMO Q Extraction (ThreePass): 0.00s

    Gurobi Optimizer version 13.0.0 build v13.0.0rc1 (linux64 - "Oracle Linux Server 9.7")
    
    CPU model: AMD EPYC 7643 48-Core Processor, instruction set [SSE2|AVX|AVX2]
    Thread count: 48 physical cores, 96 logical processors, using up to 1 threads
    
    Non-default parameters:
    TimeLimit  300
    MIPGap  1e-06
    LogToConsole  0
    NonConvex  2
    Threads  1
    
    Optimize a model with 58 rows, 115 columns and 94 nonzeros (Min)
    Model fingerprint: 0x4ae036af
    Model has 11 linear objective coefficients
    Model has 44 general nonlinear constraints (220 nonlinear terms)
    Variable types: 71 continuous, 44 integer (0 binary)
    Coefficient statistics:
      Matrix range     [1e+00, 1e+00]
      Objective range  [1e+00, 1e+00]
      Bounds range     [1e+00, 9e+01]
      RHS range        [1e+00, 1e+00]
      NLCon coe range  [5e-03, 1e+00]
    Presolve model has 44 nlconstr
    Added 396 variables to disaggregate expressions
    Presolve removed 44 rows and 0 columns
    Presolve time: 0.00s
    Presolved: 938 rows, 556 columns, 2162 nonzeros
    Presolved model has 176 bilinear constraint(s)
    
    Solving non-convex MIQCP to global optimality
    
    Variable types: 512 continuous, 44 integer (44 binary)
    Found heuristic solution: objective 11.1755219
    
    Root relaxation: objective 0.000000e+00, 164 iterations, 0.00 seconds (0.00 work units)
    
        Nodes    |    Current Node    |     Objective Bounds      |     Work
     Expl Unexpl |  Obj  Depth IntInf | Incumbent    BestBd   Gap | It/Node Time
    
         0     0    0.00000    0  110   11.17552    0.00000   100%     -    0s
    H    0     0                      10.3912317    0.00000   100%     -    0s
         0     0    0.00000    0  128   10.39123    0.00000   100%     -    0s
         0     0    0.00000    0  159   10.39123    0.00000   100%     -    0s
         0     0    0.00000    0  189   10.39123    0.00000   100%     -    0s
         0     0    0.00000    0  190   10.39123    0.00000   100%     -    0s
         0     0    0.00000    0  189   10.39123    0.00000   100%     -    0s
         0     0    0.00000    0  189   10.39123    0.00000   100%     -    0s
         0     0    0.00000    0  189   10.39123    0.00000   100%     -    0s
         0     0    0.00000    0  188   10.39123    0.00000   100%     -    0s
    H    0     0                      10.2463086    0.00000   100%     -    0s
    H    0     0                      10.1062438    0.00000   100%     -    0s
    H    0     0                       9.5618972    0.00000   100%     -    0s
         0     2    0.00000    0  188    9.56190    0.00000   100%     -    0s
    H    1     1                       9.4493231    0.00000   100%   0.0    0s
    H    1     1                       9.2360719    0.00000   100%   0.0    0s
    H    2     2                       8.1177607    0.00000   100%   9.0    0s
    H    2     2                       7.6407017    0.00000   100%   9.0    0s
    H    3     3                       7.6359581    0.00000   100%   7.3    0s
    H    4     4                       7.6359581    0.00000   100%  10.0    0s
    H   10    10                       7.6359581    0.00000   100%  10.5    0s
    H   21    21                       6.5162370    0.00000   100%   9.5    0s
    H   23    23                       6.5162370    0.00000   100%   9.3    0s
    H   24    24                       6.0763612    0.00000   100%   9.9    0s
    H   25    25                       5.9443125    0.00000   100%   9.6    0s
    H   26    26                       5.9443125    0.00000   100%   9.4    0s
    H   32    32                       5.9443125    0.00000   100%  10.1    0s
    H  180   164                       5.8005726    0.00000   100%  10.4    0s
    H  237   179                       5.2697078    0.00000   100%   9.6    0s
    H  239   181                       5.1477218    0.00000   100%   9.7    0s
    H  240   182                       5.1477218    0.00000   100%   9.8    0s
    H  278   219                       4.9671332    0.00000   100%   9.1    0s
    H  363   239                       4.5997838    0.00000   100%   8.9    0s
    H  441   284                       4.5264915    0.00000   100%   9.1    0s
    H  441   284                       4.5249594    0.00000   100%   9.1    0s
    H  441   284                       4.5249013    0.00000   100%   9.1    0s
    H  441   284                       4.5248729    0.00000   100%   9.1    0s
    H  594   359                       4.4570983    0.00000   100%   9.4    0s
    H  636   368                       4.3638545    0.00000   100%  15.4    1s
    H  636   350                       4.3636210    0.00000   100%  15.4    1s
    H  636   333                       4.3636173    0.00000   100%  15.4    1s
    H  710   351                       4.3330866    0.00000   100%  16.0    1s
    H  710   335                       4.3272146    0.00000   100%  16.0    1s
    H  724   324                       4.3271828    0.00000   100%  16.0    1s
    H  751   316                       4.2571220    0.00000   100%  16.2    1s
    H  751   303                       4.2568697    0.00000   100%  16.2    1s
    H  751   290                       4.2566461    0.00000   100%  16.2    1s
    H  751   278                       4.2566348    0.00000   100%  16.2    1s
    H  836   296                       4.2566287    0.00000   100%  17.4    1s
    H 1010   331                       4.1305289    0.00000   100%  17.2    1s
    H 1056   334                       4.1202605    0.00000   100%  17.4    2s
    H 1078   326                       4.1085338    0.00000   100%  17.4    2s
    H 1078   317                       4.1067535    0.00000   100%  17.4    2s
    H 1078   308                       4.1061622    0.00000   100%  17.4    2s
    H 1078   305                       4.1060624    0.00000   100%  17.4    2s
    H 1078   305                       4.1060201    0.00000   100%  17.4    2s
    H 1104   328                       4.0474600    0.00000   100%  17.5    2s
    H 1104   328                       4.0452605    0.00000   100%  17.5    2s
    H 1104   328                       4.0451479    0.00000   100%  17.5    2s
    H 1176   376                       4.0429866    0.00000   100%  17.8    2s
    H 1176   376                       4.0426688    0.00000   100%  17.8    2s
    H 1176   376                       4.0424913    0.00000   100%  17.8    2s
    H 1199   385                       3.7923194    0.00000   100%  17.6    2s
    H 1207   390                       3.7923194    0.00000   100%  17.6    2s
    H 1233   408                       3.7923194    0.00000   100%  17.5    2s
    H 1647   678                       3.7923194    0.00000   100%  17.7    2s
      3390  1434    3.18483   33  166    3.79232    0.00000   100%  19.5    5s
    H 4814  1894                       3.7903556    0.24238  93.6%  19.9    6s
    H 7767  2681                       3.6926449    0.62762  83.0%  19.2    8s
    H 7834  2579                       3.4989474    0.65317  81.3%  19.2    8s
      8932  2906    2.18998   29  183    3.49895    0.74859  78.6%  18.9   10s
     14598  3724    2.32490   32  180    3.49895    1.16841  66.6%  19.6   15s
    H16570  3851                       3.4989474    1.33012  62.0%  19.8   16s
    H16570  3851                       3.4989474    1.33012  62.0%  19.8   17s
    H16781  3848                       3.4989474    1.34993  61.4%  19.9   17s
    H17942  4017                       3.4989474    1.42414  59.3%  19.8   18s
     18978  4112     cutoff   38         3.49895    1.46418  58.2%  20.0   20s
     24218  4248    2.62862   34  184    3.49895    1.78384  49.0%  20.3   25s
    H24962  4173                       3.3937077    1.81619  46.5%  20.2   25s
    H25093  4171                       3.3937077    1.82299  46.3%  20.2   25s
     28969  3887    2.11752   33  180    3.39371    2.11752  37.6%  20.3   30s
     33573  3415     cutoff   30         3.39371    2.43848  28.1%  20.4   35s
     38547  3306    3.13474   51  151    3.39371    2.72786  19.6%  19.8   40s
    *44003  4547             168       3.3937032    2.90246  14.5%  18.8   44s
    *44004  4546             169       3.3936982    2.90246  14.5%  18.8   44s
     44141  4569    3.32100   47  164    3.39370    2.90476  14.4%  18.8   45s
     49416  6518    3.37216   87  154    3.39370    2.96905  12.5%  17.8   50s
     54963  8662    3.33187   53  121    3.39370    3.00741  11.4%  16.9   55s
     60467 10356    3.32640   54  121    3.39370    3.03218  10.7%  16.3   60s
     66258 12062     cutoff   63         3.39370    3.05565  10.0%  15.7   65s
     72023 13417     cutoff   46         3.39370    3.07492  9.39%  15.2   70s
     77832 15188    3.37653   51  121    3.39370    3.08995  8.95%  14.8   75s
     83690 16673    3.36818   60  121    3.39370    3.10414  8.53%  14.3   80s
     89816 18325     cutoff   58         3.39370    3.11601  8.18%  13.9   85s
     96158 19985    3.33157   80  110    3.39370    3.12860  7.81%  13.5   90s
     102673 21656    3.38811   87   98    3.39370    3.13866  7.52%  13.1   95s
     108800 23053    3.25347   65  132    3.39370    3.14775  7.25%  12.8  100s
     115358 24765    3.35357   59  108    3.39370    3.15714  6.97%  12.5  105s
     121697 26442    3.24676   63  152    3.39370    3.16487  6.74%  12.2  110s
     127648 27929    3.37997   76   98    3.39370    3.17120  6.56%  12.0  115s
     134092 29365     cutoff   67         3.39370    3.17802  6.36%  11.7  120s
     140504 30613    3.29577   68  121    3.39370    3.18441  6.17%  11.6  125s
     147018 31893     cutoff   48         3.39370    3.19091  5.98%  11.4  130s
     153083 33210    3.19519   57  107    3.39370    3.19519  5.85%  11.2  135s
     159567 34582    3.37859   61  120    3.39370    3.20046  5.69%  11.0  140s
     165957 35808    3.23967   56  132    3.39370    3.20634  5.52%  10.9  145s
     172446 37169    3.38732   81  142    3.39370    3.21154  5.37%  10.7  150s
     178597 38482     cutoff   56         3.39370    3.21539  5.25%  10.6  155s
     185072 40061    3.35797   64   88    3.39370    3.21880  5.15%  10.5  160s
     191393 41474    3.29943   56  143    3.39370    3.22221  5.05%  10.4  165s
     197640 42759    3.38780   65  109    3.39370    3.22533  4.96%  10.2  170s
     203589 44070     cutoff   66         3.39370    3.22756  4.90%  10.2  175s
     208798 45295    3.26292   58  110    3.39370    3.22956  4.84%  10.1  180s
     214708 46833    3.29909   54  121    3.39370    3.23217  4.76%  10.1  185s
     220568 47875    3.38128   58  132    3.39370    3.23474  4.68%  10.0  190s
     226362 49057     cutoff   63         3.39370    3.23701  4.62%  10.0  195s
     231919 50240     cutoff   66         3.39370    3.23924  4.55%   9.9  200s
     237744 51231    3.35434   69  132    3.39370    3.24149  4.49%   9.9  205s
     243337 52308    3.37538   75   99    3.39370    3.24363  4.42%   9.9  210s
     249121 53172    3.38080   70  132    3.39370    3.24567  4.36%   9.8  215s
     254983 53968    3.37289   64  132    3.39370    3.24775  4.30%   9.8  220s
     261321 54906    3.36025   73  110    3.39370    3.24984  4.24%   9.7  225s
     267531 55846     cutoff   68         3.39370    3.25191  4.18%   9.6  230s
     274033 56606    3.25791   58   99    3.39370    3.25380  4.12%   9.6  235s
     279964 57507     cutoff   53         3.39370    3.25533  4.08%   9.5  240s
     286576 58403     cutoff   68         3.39370    3.25735  4.02%   9.4  245s
     293045 59393    3.38976   68  121    3.39370    3.25904  3.97%   9.4  250s
     299312 60182    3.37065   79  120    3.39370    3.26079  3.92%   9.3  255s
     305745 61017    3.31377   69  141    3.39370    3.26237  3.87%   9.3  260s
     312031 62041    3.32172   58   99    3.39370    3.26390  3.82%   9.2  265s
     318332 63170     cutoff   68         3.39370    3.26554  3.78%   9.2  270s
     324745 64085    3.36700   76   99    3.39370    3.26715  3.73%   9.1  275s
     330957 64715     cutoff   70         3.39370    3.26878  3.68%   9.1  280s
     337442 65508    3.36773   68   99    3.39370    3.27045  3.63%   9.0  285s
     343891 66469    3.37587   74   87    3.39370    3.27195  3.59%   9.0  290s
     349944 67238     cutoff   76         3.39370    3.27350  3.54%   8.9  295s
     356482 68124    3.33068   56   99    3.39370    3.27513  3.49%   8.9  300s
    
    Cutting planes:
      Implied bound: 3
      MIR: 2
      Flow cover: 28
      Inf proof: 1
      RLT: 6
    
    Explored 356483 nodes (3167487 simplex iterations) in 300.00 seconds (199.41 work units)
    Thread count was 1 (of 96 available processors)
    
    Solution count 10: 3.3937 3.3937 3.39371 ... 4.04299
    
    Time limit reached
    Warning: max constraint violation (1.6011e-06) exceeds tolerance
    Warning: max general constraint violation (1.6011e-06) exceeds tolerance
    Best objective 3.393698210498e+00, best bound 3.275131068855e+00, gap 3.4937%
    
    User-callback calls 356555, time in user-callback 0.02 sec

--- Reading solution for model GAMS_MODEL
***
*** Solver did not provide marginals for model GAMS_MODEL
***
--- Executing after solve: elapsed 0:05:00.092
--- model.gms(277) 3 Mb
--- model.gms(458) 5 Mb
--- Putfile results /local/scratch/a/sgusev/repos/k_means/data/gams_gurobi_gdp.binary_multiplication/no_mode/2026-02-19_00-16-16/original/results.dat
--- Putfile statresults /local/scratch/a/sgusev/repos/k_means/data/gams_gurobi_gdp.binary_multiplication/no_mode/2026-02-19_00-16-16/original/resultsstat.dat
*** Status: Normal completion
--- Job model.gms Stop 02/19/26 00:21:17 elapsed 0:05:00.093
Original problem solved. Time taken: 300.5797367095947 seconds
Original objective value: 3.3936982104975653
